Clp0006I 0  Obj 0 Primal inf 199.99998 (200) Dual inf 274698.8 (10000)
Clp0006I 169  Obj -4931.5253 Primal inf 35.999997 (33)
Clp0006I 234  Obj -4924.3566 Primal inf 11.999999 (10)
Clp0006I 238  Obj -4924.0225
Clp0000I Optimal - objective value -4924.0225
Clp0000I Optimal - objective value -4924.0225
Node 0 depth 0 unsatisfied 0 sum 0 obj -4924.02 guess -4924.02 branching on -1
Clp0000I Optimal - objective value -4924.0225
Cbc0004I Integer solution of -4924.0225 found after 0 iterations and 0 nodes (0.02 seconds)
Cbc0001I Search completed - best objective -4924.022499999997, took 0 iterations and 0 nodes (0.03 seconds)
Cbc0035I Maximum depth 0, 0 variables fixed on reduced cost
Clp0000I Optimal - objective value -4924.0225
Clp0000I Optimal - objective value -4924.0225
x_45 = 1
x_175 = 1
x_281 = 1
x_308 = 1
x_415 = 1
x_517 = 1
x_644 = 1
x_792 = 1
x_891 = 1
x_925 = 1
x_1060 = 1
x_1173 = 1
x_1235 = 1
x_1359 = 1
x_1461 = 1
x_1537 = 1
x_1688 = 1
x_1709 = 1
x_1843 = 1
x_1993 = 1
x_2071 = 1
x_2104 = 1
x_2232 = 1
x_2301 = 1
x_2453 = 1
x_2524 = 1
x_2678 = 1
x_2716 = 1
x_2849 = 1
x_2922 = 1
x_3003 = 1
x_3112 = 1
x_3262 = 1
x_3311 = 1
x_3423 = 1
x_3597 = 1
x_3639 = 1
x_3748 = 1
x_3877 = 1
x_3927 = 1
x_4028 = 1
x_4169 = 1
x_4280 = 1
x_4341 = 1
x_4456 = 1
x_4506 = 1
x_4684 = 1
x_4785 = 1
x_4867 = 1
x_4902 = 1
x_5072 = 1
x_5126 = 1
x_5298 = 1
x_5300 = 1
x_5414 = 1
x_5565 = 1
x_5658 = 1
x_5740 = 1
x_5852 = 1
x_5976 = 1
x_6034 = 1
x_6138 = 1
x_6220 = 1
x_6342 = 1
x_6482 = 1
x_6587 = 1
x_6633 = 1
x_6766 = 1
x_6863 = 1
x_6905 = 1
x_7099 = 1
x_7121 = 1
x_7229 = 1
x_7347 = 1
x_7457 = 1
x_7583 = 1
x_7670 = 1
x_7731 = 1
x_7890 = 1
x_7968 = 1
x_8055 = 1
x_8195 = 1
x_8246 = 1
x_8336 = 1
x_8413 = 1
x_8530 = 1
x_8650 = 1
x_8719 = 1
x_8889 = 1
x_8964 = 1
x_9086 = 1
x_9154 = 1
x_9218 = 1
x_9351 = 1
x_9479 = 1
x_9510 = 1
x_9674 = 1
x_9794 = 1
x_9807 = 1
x_9996 = 1
real 0m0,088s user 0m0,070s sys 0m0,017s
